PRECEDENCE RELATIONS:
jobnr.    #modes  #successors   successors
  1        1        2        7   2   
  2        1        2        11   3   
  3        1        2        15   4   
  4        1        1        5   
  5        1        1        6   
  6        1        1        37   
  7        1        2        8   9   
  8        1        1        10   
  9        1        1        10   
  10        1        2        31   11   
  11        1        2        12   13   
  12        1        1        14   
  13        1        1        14   
  14        1        2        32   19   
  15        1        2        16   17   
  16        1        1        18   
  17        1        1        18   
  18        1        2        33   23   
  19        1        2        20   21   
  20        1        1        22   
  21        1        1        22   
  22        1        2        4   15   
  23        1        2        24   25   
  24        1        1        26   
  25        1        1        26   
  26        1        2        5   27   
  27        1        2        28   29   
  28        1        1        30   
  29        1        1        30   
  30        1        2        6   42   
  31        1        1        34   
  32        1        1        35   
  33        1        1        36   
  34        1        2        19   32   
  35        1        2        23   33   
  36        1        2        27   47   
  37        1        3        38   39   40   
  38        1        1        41   
  39        1        1        41   
  40        1        1        41   
  41        1        1        52   
  42        1        3        43   44   45   
  43        1        1        46   
  44        1        1        46   
  45        1        1        46   
  46        1        1        52   
  47        1        3        48   49   50   
  48        1        1        51   
  49        1        1        51   
  50        1        1        51   
  51        1        1        52   
  52        1          0     
---------dummy line---------
REQUESTS/DURATIONS:
jobnr. mode duration  R 1
---------dummy line---------
  1     1     1     0 
  2     1     1     0 
  3     1     1     0 
  4     1     2     0 
  5     1     2     0 
  6     1     2     0 
  7     1     0     0 
  8     1     4     6 
  9     1     4     6 
  10     1     0     0 
  11     1     0     0 
  12     1     4     6 
  13     1     4     6 
  14     1     0     0 
  15     1     0     0 
  16     1     4     6 
  17     1     4     6 
  18     1     0     0 
  19     1     0     0 
  20     1     5     7 
  21     1     5     7 
  22     1     0     0 
  23     1     0     0 
  24     1     5     7 
  25     1     5     7 
  26     1     0     0 
  27     1     0     0 
  28     1     5     7 
  29     1     5     7 
  30     1     0     0 
  31     1     5     0 
  32     1     5     0 
  33     1     5     0 
  34     1     6     0 
  35     1     6     0 
  36     1     6     0 
  37     1     0     0 
  38     1     20     7 
  39     1     20     7 
  40     1     20     7 
  41     1     0     0 
  42     1     0     0 
  43     1     0     0 
  44     1     0     0 
  45     1     0     0 
  46     1     0     0 
  47     1     0     0 
  48     1     20     7 
  49     1     20     7 
  50     1     20     7 
  51     1     0     0 
 52      1     0       0 
---------dummy line---------
RESOURCEAVAILABILITIES:
   R 1   
   7   
---------dummy end---------
